(set-logic ALL)
(declare-const BAV1 Bool)
(declare-const x Int)
(declare-const y Int)
(declare-const a Int)
(declare-const b Int)
(assert (sep (pto x a) (pto y b)))
(assert (= x y))
(assert (= BAV1 (= x y)))
(check-sat)
(get-model)